n = 25;
lu = [|-210, -205
      |260, 605
      |-509, 489
      |-364, 352
      |-540, 404
      |-274, 254
      |-129, 212
      |-567, -212
      |-330, -170
      |-360, -182
      |364, 598
      |121, 171
      |-127, 571
      |-563, -562
      |-24, 488
      |-371, 474
      |-536, 418
      |-610, 325
      |524, 604
      |17, 28
      |242, 259
      |-510, -214
      |-221, -112
      |162, 251
      |436, 618|];
